Route #1: 6 48 32 28 15 
Route #2: 7 30 16 27 24 43 14 18 25 34 
Route #3: 35 23 9 12 31 3 10 42 
Route #4: 4 29 46 26 39 33 
Route #5: 47 13 1 11 20 8 5 
Route #6: 38 22 41 
Route #7: 37 21 45 36 2 17 19 44 49 40 
cost 925.461
